data/solutions/recovery/degenerate/intermediate/binding/degenerate_intermediate_instance23/21.sol
Elapsed time: 0.05
Upper bound: 237003281.0
Planning weighted value: 9.01043660405e+11
C[0]=237003281.0
C[1]=236911788.0
C[2]=236743643.0
C[3]=234975082.0
C[4]=232976855.0
C[5]=227655800.0
C[6]=227238783.0
C[7]=217597527.0
C[8]=216447874.0
C[9]=212250634.0
C[10]=202604633.0
C[11]=0.0
y[0]=0
y[1]=2
y[2]=10
y[3]=8
y[4]=1
y[5]=4
y[6]=2
y[7]=3
y[8]=0
y[9]=5
y[10]=10
y[11]=4
y[12]=0
y[13]=1
y[14]=10
y[15]=2
y[16]=6
y[17]=1
y[18]=0
y[19]=2
y[20]=3
y[21]=1
y[22]=10
y[23]=8
y[24]=4
y[25]=10
y[26]=4
y[27]=10
y[28]=3
y[29]=4
y[30]=7
y[31]=9
y[32]=1
y[33]=2
y[34]=2
y[35]=3
y[36]=4
y[37]=8
y[38]=9
y[39]=10
y[40]=5
y[41]=0
y[42]=0
y[43]=5
y[44]=1
y[45]=7
y[46]=0
y[47]=8
y[48]=5
y[49]=4
y[50]=6
y[51]=5
y[52]=5
y[53]=0
y[54]=8
y[55]=6
y[56]=7
y[57]=3
y[58]=6
y[59]=8
y[60]=7
y[61]=6
y[62]=9
y[63]=9
y[64]=5
y[65]=9
y[66]=6
y[67]=1
y[68]=7
y[69]=9
y[70]=5
y[71]=8
y[72]=1
y[73]=7
y[74]=6
y[75]=0
y[76]=2
y[77]=6
